CMD:
./solvers/bin/cadical --plain --no-reduce -t 1600 ./data/cnfs//pj2007/pj2007.60.cnf

c --- [ banner ] -------------------------------------------------------------
c 
c CaDiCaL SAT Solver
c Copyright (c) 2016-2024
c A. Biere, M. Fleury, N. Froleyks, K. Fazekas, F. Pollitt, T. Faller
c JKU Linz, University of Freiburg, TU Wien
c 
c Version 2.1.3 5296d3d2a9bf48c154ab2acb5e44625776d821bf
c g++ (Gentoo 12.3.1_p20230526 p2) 12.3.1 20230526 -Wall -Wextra -O3 -DNDEBUG
c Sat Aug 9 07:26:21 PDT 2025 Linux cedar2.int.cedar.computecanada.ca 5.14.0-362.24.2.el9_3.x86_64 x86_64
c 
c --- [ limit ] --------------------------------------------------------------
c 
c setting time limit to 1600 seconds real time (due to '-t 1600')
c 
c --- [ parsing input ] ------------------------------------------------------
c 
c reading DIMACS file from './data/cnfs//pj2007/pj2007.60.cnf'
c opening file to read './data/cnfs//pj2007/pj2007.60.cnf'
c found 'p cnf 1062288 3114870' header
c parsed 3114870 clauses in 0.48 seconds process time
c 
c --- [ options ] ------------------------------------------------------------
c 
c   --compact=false                (different from default 'true')
c   --decompose=false              (different from default 'true')
c   --deduplicate=false            (different from default 'true')
c   --elim=false                   (different from default 'true')
c   --probe=false                  (different from default 'true')
c   --reduce=false                 (different from default 'true')
c   --subsume=false                (different from default 'true')
c   --ternary=false                (different from default 'true')
c   --transred=false               (different from default 'true')
c   --vivify=false                 (different from default 'true')
c 
c --- [ solving ] ------------------------------------------------------------
c 
c time measured in process time since initialization
c 
c  seconds   reductions  redundant   irredundant
c          MB    restarts       trail         variables
c           level   conflicts       glue            remaining
c 
c *  0.48 481  0 0   0    0    0  0% 0 3087212 1021536 96%
c {  0.49 482  0 0   0    0    0  0% 0 3087212 1021536 96%
c i  0.49 482 338 0   0   29   28  5% 1 3087212 1021501 96%
c i  0.51 482 553 0   0   63   61  6% 1 3087212 1021500 96%
c i  0.55 483 989 0   5  165  159  8% 1 3087212 1021492 96%
c i  0.56 483 800 0  18  210  200  7% 2 3087212 1021491 96%
c i  0.61 483 813 0  28  246  232  7% 2 3087212 1021489 96%
c i  0.65 484 893 0  32  259  244  8% 2 3087212 1021487 96%
c i  0.67 484 928 0  36  274  257  8% 2 3087212 1021477 96%
c i  0.70 484 1171 0  36  338  314  9% 2 3087212 1021476 96%
c i  0.70 484 1112 0  38  358  331  9% 2 3087212 1021475 96%
c i  0.70 484 1105 0  38  360  332  9% 2 3087212 1021474 96%
c i  0.70 484 1102 0  38  361  332  9% 2 3087212 1021473 96%
c i  0.70 484 1044 0  40  381  351  9% 2 3087212 1021472 96%
c i  0.70 484 1020 0  43  390  358  8% 2 3087212 1021467 96%
c i  0.70 484 984 0  44  405  371  8% 2 3087212 1021466 96%
c i  0.70 484 979 0  44  407  372  8% 2 3087212 1021465 96%
c i  0.71 484 834 0  62  484  435  8% 2 3087212 1021464 96%
c i  0.71 484 773 0  70  526  467  7% 2 3087212 1021462 96%
c i  0.74 484 715 0  87  586  526  7% 2 3087212 1021460 96%
c 
c  seconds    reductions  redundant   irredundant
c          MB     restarts       trail         variables
c            level   conflicts       glue            remaining
c 
c i  0.74 484 714 0  87  587  526  7% 2 3087212 1021459 96%
c i  0.74 484 699 0  90  599  536  7% 2 3087212 1021451 96%
c i  0.74 484 696 0  91  602  537  7% 2 3087212 1021450 96%
c i  0.78 484 671 0 106  893  816  8% 2 3087212 1021446 96%
c i  0.78 484 662 0 106  908  827  8% 2 3087212 1021445 96%
c i  0.78 484 638 0 106  948  862  8% 2 3087212 1021444 96%
c i  0.78 484 633 0 106  960  869  8% 2 3087212 1021443 96%
c }  0.78 484 611 0 106 1004  907  8% 2 3087212 1021443 96%
c [  0.78 484  0 0 106 1004  907  0% 0 3087212 1021443 96%
c O  0.80 484 323 0 106 1005  908  6% 1 3087212 1021443 96%
c i  1.22 493 5100 0 106 1623 1383 47% 2 3087212 1021441 96%
c i  1.22 493 5081 0 106 1625 1383 47% 2 3087212 1021434 96%
c i  1.22 493 4862 0 106 1651 1404 45% 2 3087212 1021433 96%
c i  1.22 493 4821 0 106 1656 1407 45% 2 3087212 1021428 96%
c i  1.22 493 4813 0 106 1657 1407 45% 2 3087212 1021427 96%
c i  1.22 493 4695 0 106 1673 1420 44% 2 3087212 1021422 96%
c i  1.22 493 4463 0 106 1705 1449 42% 2 3087212 1021414 96%
c i  1.22 493 4450 0 106 1707 1450 42% 2 3087212 1021413 96%
c i  1.22 493 4436 0 106 1709 1451 42% 2 3087212 1021412 96%
c i  1.23 493 4057 0 106 1775 1515 39% 2 3087212 1021410 96%
c 
c  seconds     reductions  redundant   irredundant
c          MB      restarts       trail         variables
c            level    conflicts       glue            remaining
c 
c i  1.23 493 4014 0 106 1783 1522 39% 2 3087212 1021409 96%
c i  1.24 493 3783 0 106 1830 1565 37% 2 3087212 1021408 96%
c i  1.24 493 3634 0 106 1865 1595 36% 2 3087212 1021406 96%
c i  1.24 493 3435 0 106 1918 1641 34% 2 3087212 1021404 96%
... skipped 81 lines ...
c i  1.68 494 370 0 295 3886 3354  6% 2 3087212 1021291 96%
c i  1.69 494 366 0 297 3918 3381  6% 2 3087212 1021290 96%
c i  1.70 494 365 0 300 3933 3394  6% 2 3087212 1021289 96%
c i  1.70 494 362 0 305 3952 3410  6% 2 3087212 1021288 96%
c i  1.70 494 362 0 305 3953 3410  6% 2 3087212 1021287 96%
c i  1.70 494 361 0 305 3954 3410  6% 2 3087212 1021285 96%
c i  1.70 494 361 0 305 3955 3410  6% 2 3087212 1021278 96%
c i  1.71 494 356 0 305 4008 3456  6% 2 3087212 1021275 96%
c i  1.77 494 344 0 330 4159 3576  6% 2 3087212 1021274 96%
c i  1.77 494 334 0 342 4222 3632  6% 2 3087212 1021273 96%
c 
c  seconds    reductions  redundant   irredundant
c          MB     restarts       trail         variables
c            level   conflicts       glue            remaining
c 
c i  1.77 494 334 0 342 4225 3633  6% 2 3087212 1021272 96%
c i  1.77 494 330 0 347 4257 3658  6% 2 3087212 1021270 96%
c i  1.77 494 329 0 349 4265 3665  6% 2 3087212 1021269 96%
c i  1.78 494 328 0 350 4269 3668  6% 2 3087212 1021268 96%
c i  1.82 494 313 0 383 4427 3814  6% 2 3087212 1021267 96%
c i  1.84 494 310 0 393 4461 3843  6% 2 3087212 1021266 96%
c i  1.88 494 294 0 427 4622 3991  6% 2 3087212 1021264 96%
c i  1.90 494 288 0 438 4701 4063  6% 2 3087212 1021262 96%
c i  1.90 494 287 0 438 4709 4069  6% 2 3087212 1021260 96%
c i  1.90 494 287 0 438 4714 4070  6% 2 3087212 1021259 96%
c i  1.92 494 285 0 444 4767 4113  6% 2 3087212 1021257 96%
c i  1.94 494 277 0 471 4897 4228  6% 2 3087212 1021255 96%
c i  1.96 494 263 0 487 5057 4370  6% 2 3087212 1021122 96%
c i  1.96 494 257 0 505 5132 4435  6% 2 3087212 1020989 96%
c i  1.97 494 255 0 510 5156 4456  6% 2 3087212 1020853 96%
c i  1.99 494 245 0 539 5290 4575  6% 3 3087212 1020546 96%
c i  1.99 494 243 0 546 5320 4601  6% 3 3087212 1020545 96%
c i  1.99 494 238 0 563 5386 4657  6% 3 3087212 1020544 96%
c i  1.99 494 238 0 563 5387 4657  6% 3 3087212 1020066 96%
c i  2.00 494 237 0 565 5393 4660  6% 3 3087212 1020043 96%
c 
c  seconds    reductions  redundant   irredundant
c          MB     restarts       trail         variables
c            level   conflicts       glue            remaining
c 
c i  2.00 494 237 0 565 5394 4660  6% 3 3087212 1019859 96%
c i  2.00 494 237 0 565 5396 4661  6% 3 3087212 1019857 96%
c i  2.00 494 237 0 565 5401 4665  6% 3 3087212 1019845 96%
c i  2.00 494 237 0 565 5403 4666  6% 3 3087212 1019790 96%
c i  2.00 494 236 0 565 5406 4668  6% 3 3087212 1019786 96%
c i  2.00 494 236 0 565 5407 4668  6% 3 3087212 1019744 96%
c }  2.00 494 236 0 565 5409 4668  6% 3 3087212 1019726 96%
c 0  2.00 494 236 0 565 5409 4668  6% 3 3087212 1019726 96%
c 
c --- [ result ] -------------------------------------------------------------
c 
s UNSATISFIABLE
c 
c --- [ run-time profiling ] -------------------------------------------------
c 
c process time taken by individual solving procedures
c (percentage relative to process time for solving)
c 
c         1.51   99.99% search
c         0.89   59.11% unstable
c         0.61   40.49% stable
c         0.48   31.87% parse
c         0.01    0.38% lucky
c         0.00    0.00% simplify
c   =================================
c         1.51   75.81% solve
c 
c last line shows process time for solving
c (percentage relative to total process time)
c 
c --- [ statistics ] ---------------------------------------------------------
c 
c chronological:              2923        54.04 %  of conflicts
c conflicts:                  5409      3575.09    per second
c decisions:                102348     67647.12    per second
c fixed:                     42558         4.01 %  of all variables
c learned:                    5035        93.09 %  per conflict
c learned_lits:              48584       100.00 %  learned literals
c minimized:                     0         0.00 %  learned literals
c shrunken:                   9363        19.27 %  learned literals
c minishrunken:               6900        14.20 %  learned literals
c otfs:                         81         1.50 %  of conflict
c propagations:           15371196        10.16 M  per second
c rephased:                      2      2704.50    interval
c restarts:                    565         9.57    interval
c stabilizing:                   1        37.09 %  of conflicts
c subsumed:                    216         0.01 %  of all clauses
c strengthened:                 80         0.00 %  of all clauses
c 
c seconds are measured in process time for solving
c 
c --- [ resources ] ----------------------------------------------------------
c 
c total process time since initialization:         2.00    seconds
c total real time since initialization:            2.01    seconds
c maximum resident set size of process:          492.67    MB
c 
c --- [ shutting down ] ------------------------------------------------------
c 
c exit 20
